num_asignaturas = 40;
num_salas = 3;
prioridad = [7, 5, 8, 7, 3, 1, 9, 4, 5, 3, 5, 4, 7, 1, 6, 3, 1, 4, 4, 3, 3, 5, 5, 4, 3, 4, 2, 4, 5, 3, 10, 2, 3, 5, 4, 2, 3, 3, 7, 4];
cantidad_de_alumnos = [68, 49, 51, 66, 77, 67, 53, 49, 52, 73, 56, 47, 54, 63, 45, 67, 58, 67, 57, 41, 75, 74, 64, 80, 58, 63, 51, 43, 53, 66, 64, 54, 66, 69, 45, 45, 69, 50, 46, 56];
capacidad = [48, 72, 50];
tipo_bloque = [0, 0, 1, 0, 1, 1, 1, 1, 1, 1, 0, 1, 1, 1, 0, 1, 1, 1, 1, 0, 0, 0, 1, 1, 1, 0, 0, 0, 1, 1, 0, 1, 1, 0, 0, 0, 1, 1, 0, 0];
bloques_restriccion = [|
 [("Viernes", 7), ("Martes", 7), ("Viernes", 5), ("Jueves", 5), ("Martes", 6), ("Viernes", 4), ("Miercoles", 6), ("Martes", 2), ("Miercoles", 1), ("Lunes", 7)],
 [("Jueves", 7), ("Martes", 2), ("Martes", 4), ("Lunes", 2), ("Viernes", 2), ("Lunes", 3), ("Jueves", 4), ("Lunes", 1), ("Viernes", 1)],
 [("Viernes", 1), ("Lunes", 6), ("Lunes", 4), ("Viernes", 5), ("Martes", 1), ("Jueves", 2), ("Viernes", 6), ("Martes", 6), ("Martes", 4), ("Jueves", 1), ("Lunes", 3), ("Lunes", 1), ("Miercoles", 1)],
 [("Lunes", 5), ("Miercoles", 5), ("Miercoles", 6), ("Viernes", 2), ("Jueves", 4), ("Martes", 3), ("Viernes", 3), ("Martes", 5), ("Jueves", 7), ("Lunes", 3), ("Miercoles", 4), ("Martes", 1), ("Lunes", 7), ("Viernes", 7), ("Martes", 4), ("Lunes", 6), ("Lunes", 4)],
 [("Miercoles", 5), ("Jueves", 6), ("Viernes", 2), ("Viernes", 4), ("Viernes", 1), ("Miercoles", 1), ("Jueves", 2), ("Lunes", 6)],
 [("Lunes", 3), ("Lunes", 5), ("Martes", 4), ("Lunes", 2), ("Martes", 6), ("Viernes", 3), ("Miercoles", 5), ("Jueves", 4), ("Martes", 2), ("Jueves", 5), ("Jueves", 6), ("Miercoles", 4)],
 [("Martes", 6), ("Jueves", 3), ("Martes", 4), ("Viernes", 4), ("Miercoles", 5), ("Viernes", 2), ("Jueves", 4), ("Miercoles", 3), ("Jueves", 6), ("Lunes", 5), ("Martes", 1), ("Lunes", 6), ("Martes", 2), ("Lunes", 2), ("Martes", 5)],
 [("Miercoles", 4), ("Martes", 3), ("Martes", 5), ("Lunes", 4), ("Jueves", 2), ("Jueves", 3), ("Viernes", 1)],
 [("Miercoles", 4), ("Martes", 1), ("Martes", 4), ("Lunes", 6), ("Jueves", 6), ("Viernes", 5), ("Lunes", 5), ("Miercoles", 2), ("Jueves", 3), ("Jueves", 4), ("Jueves", 5), ("Martes", 5), ("Martes", 6), ("Miercoles", 6), ("Jueves", 2), ("Martes", 3), ("Miercoles", 3)],
 [("Jueves", 6), ("Lunes", 6), ("Lunes", 5), ("Jueves", 2), ("Miercoles", 5), ("Jueves", 1), ("Miercoles", 3), ("Miercoles", 1), ("Viernes", 4), ("Jueves", 3), ("Miercoles", 2), ("Martes", 3), ("Lunes", 2), ("Lunes", 4)],
 [("Martes", 3), ("Lunes", 6), ("Martes", 2), ("Miercoles", 4), ("Martes", 1), ("Miercoles", 2), ("Miercoles", 1), ("Martes", 4), ("Jueves", 1), ("Miercoles", 7), ("Lunes", 4), ("Lunes", 2), ("Viernes", 2), ("Jueves", 2), ("Viernes", 4), ("Jueves", 5), ("Miercoles", 5), ("Jueves", 7), ("Jueves", 4), ("Viernes", 5), ("Viernes", 1)],
 [("Miercoles", 2), ("Martes", 6), ("Viernes", 5), ("Martes", 1), ("Lunes", 5), ("Jueves", 3), ("Lunes", 6), ("Jueves", 5), ("Martes", 2), ("Viernes", 6), ("Miercoles", 4), ("Miercoles", 3), ("Viernes", 3), ("Lunes", 4), ("Martes", 5), ("Jueves", 4), ("Martes", 4)],
 [("Viernes", 2), ("Viernes", 4), ("Jueves", 5), ("Jueves", 1), ("Martes", 6), ("Martes", 1), ("Viernes", 3)],
 [("Viernes", 5), ("Martes", 6), ("Jueves", 3), ("Miercoles", 4), ("Jueves", 2), ("Viernes", 2), ("Viernes", 6), ("Martes", 4), ("Miercoles", 5), ("Martes", 5), ("Miercoles", 3), ("Jueves", 1), ("Miercoles", 2), ("Lunes", 6), ("Miercoles", 1), ("Jueves", 4), ("Jueves", 6), ("Lunes", 3), ("Martes", 1)],
 [("Viernes", 5), ("Lunes", 5), ("Lunes", 7), ("Jueves", 7), ("Lunes", 1), ("Viernes", 7), ("Lunes", 2), ("Martes", 5), ("Viernes", 3), ("Viernes", 4), ("Jueves", 3), ("Miercoles", 3), ("Lunes", 4), ("Miercoles", 2)],
 [("Martes", 6), ("Jueves", 3), ("Jueves", 2), ("Viernes", 2), ("Jueves", 1), ("Lunes", 6), ("Martes", 1)],
 [("Viernes", 3), ("Viernes", 6), ("Lunes", 6), ("Martes", 1), ("Jueves", 1), ("Viernes", 4), ("Martes", 2), ("Jueves", 6), ("Miercoles", 5), ("Viernes", 1), ("Martes", 3), ("Jueves", 5), ("Lunes", 2), ("Viernes", 5), ("Lunes", 4)],
 [("Miercoles", 3), ("Lunes", 3), ("Viernes", 4), ("Miercoles", 2), ("Miercoles", 1), ("Jueves", 3), ("Jueves", 1), ("Martes", 3)],
 [("Miercoles", 5), ("Lunes", 1), ("Martes", 5), ("Viernes", 6), ("Viernes", 2), ("Jueves", 4), ("Miercoles", 1), ("Martes", 2), ("Jueves", 6), ("Lunes", 2), ("Miercoles", 2), ("Jueves", 2)],
 [("Miercoles", 6), ("Martes", 3), ("Viernes", 3), ("Miercoles", 7), ("Martes", 7), ("Lunes", 3), ("Miercoles", 2), ("Jueves", 3), ("Viernes", 7), ("Viernes", 5), ("Jueves", 1), ("Jueves", 5), ("Lunes", 1), ("Lunes", 6), ("Lunes", 4), ("Lunes", 7)],
 [("Martes", 6), ("Viernes", 6), ("Jueves", 3), ("Miercoles", 2), ("Martes", 7), ("Lunes", 5), ("Lunes", 1), ("Jueves", 6), ("Jueves", 5), ("Viernes", 5), ("Miercoles", 6)],
 [("Miercoles", 4), ("Jueves", 2), ("Lunes", 5), ("Martes", 3), ("Viernes", 3), ("Martes", 1), ("Lunes", 7), ("Viernes", 2), ("Martes", 7), ("Lunes", 6), ("Miercoles", 1), ("Viernes", 4)],
 [("Viernes", 1), ("Martes", 4), ("Miercoles", 4), ("Lunes", 1), ("Miercoles", 2), ("Jueves", 4), ("Miercoles", 1), ("Viernes", 4), ("Jueves", 3), ("Lunes", 6), ("Viernes", 6), ("Lunes", 2), ("Martes", 1), ("Lunes", 5), ("Jueves", 2), ("Miercoles", 3), ("Martes", 5), ("Lunes", 3), ("Viernes", 3), ("Martes", 6)],
 [("Lunes", 5), ("Jueves", 5), ("Miercoles", 6), ("Jueves", 3), ("Martes", 6), ("Miercoles", 3), ("Martes", 5), ("Miercoles", 5), ("Jueves", 6), ("Jueves", 4), ("Martes", 3), ("Lunes", 2), ("Viernes", 1), ("Viernes", 4), ("Viernes", 5), ("Viernes", 2)],
 [("Jueves", 1), ("Miercoles", 1), ("Martes", 5), ("Lunes", 2), ("Lunes", 1), ("Miercoles", 6), ("Martes", 2), ("Viernes", 1), ("Jueves", 5)],
 [("Miercoles", 3), ("Jueves", 1), ("Miercoles", 2), ("Martes", 6), ("Lunes", 3), ("Miercoles", 5), ("Jueves", 7), ("Viernes", 5), ("Lunes", 4), ("Miercoles", 6)],
 [("Viernes", 2), ("Viernes", 4), ("Miercoles", 7), ("Martes", 3), ("Miercoles", 2), ("Lunes", 7), ("Lunes", 6), ("Miercoles", 1), ("Viernes", 6), ("Martes", 4), ("Viernes", 5), ("Martes", 5), ("Jueves", 1), ("Martes", 1), ("Martes", 7), ("Jueves", 6), ("Jueves", 2)],
 [("Miercoles", 2), ("Martes", 5), ("Miercoles", 4), ("Lunes", 6), ("Miercoles", 7), ("Martes", 4), ("Miercoles", 5), ("Martes", 2), ("Viernes", 4), ("Jueves", 1), ("Viernes", 1), ("Jueves", 7), ("Martes", 1), ("Viernes", 7), ("Viernes", 3), ("Jueves", 2), ("Martes", 6), ("Jueves", 3)],
 [("Jueves", 5), ("Lunes", 3), ("Lunes", 2), ("Lunes", 4), ("Martes", 2), ("Miercoles", 6), ("Viernes", 6), ("Martes", 6), ("Lunes", 5), ("Miercoles", 2), ("Jueves", 2)],
 [("Lunes", 5), ("Viernes", 1), ("Miercoles", 2), ("Miercoles", 3), ("Jueves", 6), ("Viernes", 5), ("Miercoles", 5), ("Viernes", 3)],
 [("Miercoles", 1), ("Jueves", 6), ("Viernes", 1), ("Martes", 3), ("Miercoles", 6), ("Martes", 4), ("Martes", 2), ("Martes", 1), ("Lunes", 6), ("Jueves", 5), ("Lunes", 7)],
 [("Viernes", 5), ("Martes", 6), ("Jueves", 2), ("Martes", 4), ("Jueves", 3), ("Martes", 3), ("Lunes", 1), ("Miercoles", 6), ("Lunes", 2), ("Miercoles", 5)],
 [("Martes", 4), ("Martes", 3), ("Lunes", 4), ("Miercoles", 6), ("Jueves", 4), ("Miercoles", 4), ("Viernes", 3), ("Lunes", 2), ("Lunes", 5), ("Miercoles", 2), ("Viernes", 4), ("Viernes", 5), ("Miercoles", 5), ("Lunes", 3)],
 [("Martes", 7), ("Lunes", 6), ("Lunes", 3), ("Miercoles", 7), ("Jueves", 4), ("Viernes", 7), ("Viernes", 4), ("Jueves", 1), ("Lunes", 4), ("Martes", 6), ("Viernes", 3), ("Viernes", 1), ("Viernes", 6)],
 [("Martes", 1), ("Jueves", 6), ("Martes", 7), ("Miercoles", 6), ("Martes", 5), ("Viernes", 2), ("Miercoles", 1), ("Lunes", 1), ("Martes", 4), ("Lunes", 7), ("Miercoles", 4), ("Jueves", 2), ("Viernes", 3), ("Miercoles", 2), ("Lunes", 3), ("Martes", 3), ("Viernes", 4), ("Jueves", 7), ("Jueves", 1), ("Viernes", 6)],
 [("Jueves", 1), ("Jueves", 5), ("Viernes", 7), ("Viernes", 6), ("Miercoles", 1), ("Jueves", 4), ("Viernes", 5), ("Martes", 5), ("Miercoles", 2), ("Lunes", 5), ("Martes", 1), ("Viernes", 2), ("Jueves", 7), ("Lunes", 1), ("Martes", 2), ("Martes", 7), ("Lunes", 2), ("Martes", 6)],
 [("Jueves", 2), ("Viernes", 5), ("Miercoles", 6), ("Martes", 6), ("Jueves", 6), ("Martes", 2), ("Jueves", 5), ("Martes", 5), ("Martes", 4), ("Jueves", 3), ("Miercoles", 5), ("Lunes", 5), ("Martes", 3), ("Viernes", 1), ("Miercoles", 3), ("Jueves", 4), ("Lunes", 4), ("Miercoles", 4), ("Lunes", 1), ("Viernes", 3), ("Jueves", 1)],
 [("Martes", 3), ("Miercoles", 6), ("Jueves", 3), ("Martes", 6), ("Martes", 5), ("Miercoles", 4), ("Lunes", 5), ("Jueves", 5), ("Martes", 4), ("Jueves", 2), ("Lunes", 2), ("Lunes", 3), ("Martes", 1), ("Viernes", 6), ("Viernes", 5)],
 [("Viernes", 6), ("Jueves", 7), ("Miercoles", 1), ("Jueves", 4), ("Lunes", 5), ("Martes", 5), ("Martes", 4), ("Lunes", 7), ("Viernes", 4), ("Martes", 7), ("Viernes", 3)],
 [("Jueves", 1), ("Miercoles", 4), ("Miercoles", 5), ("Viernes", 7), ("Jueves", 7), ("Lunes", 2), ("Miercoles", 1)],
|];
